/*********************************************
 * OPL 22.1.1.0 Data
 * Author: Bartek
 * Creation Date: 5 Jun 2024 at 18:07:20
 *********************************************/
 
 
 
  n = 4;
  
  
  R = [
  [1,0,0,0],
  [0,0,0,0],
  [0,0,0,0],
  [1,0,0,0]];
 /**
 
 n = 8;
 
 R = [
 [1,0,0,0,0,0,0,0],
 [0,1,0,0,0,0,0,0],
 [0,0,3,0,0,0,0,0],
 [0,0,0,3,0,0,0,0],
 [0,0,0,0,5,0,0,0],
 [0,0,0,0,0,5,0,0],
 [0,0,0,0,0,0,8,0],
 [0,0,0,0,0,0,0,8]
 ];
 **/
 